c File: flat50_3_0.col
c
c SOURCE: Joseph Culberson (joe@cs.ualberta.ca)
c DESCRIPTION: Quasi-random coloring problem
c              generated with flatness = 0
c                             probability = 0.139
c                             known coloring = 3
c                             random seed = 1436
c              Creation Date:  Tue Jun  9 12:09:18 1998
c Maximum degree = 7 Minimum degree = 1
c p edge 50 115
c cnf created by edge2cnf
p cnf 150 545
-1 -2 0
-1 -3 0
-2 -3 0
1 2 3 0
-4 -5 0
-4 -6 0
-5 -6 0
4 5 6 0
-7 -8 0
-7 -9 0
-8 -9 0
7 8 9 0
-10 -11 0
-10 -12 0
-11 -12 0
10 11 12 0
-13 -14 0
-13 -15 0
-14 -15 0
13 14 15 0
-16 -17 0
-16 -18 0
-17 -18 0
16 17 18 0
-19 -20 0
-19 -21 0
-20 -21 0
19 20 21 0
-22 -23 0
-22 -24 0
-23 -24 0
22 23 24 0
-25 -26 0
-25 -27 0
-26 -27 0
25 26 27 0
-28 -29 0
-28 -30 0
-29 -30 0
28 29 30 0
-31 -32 0
-31 -33 0
-32 -33 0
31 32 33 0
-34 -35 0
-34 -36 0
-35 -36 0
34 35 36 0
-37 -38 0
-37 -39 0
-38 -39 0
37 38 39 0
-40 -41 0
-40 -42 0
-41 -42 0
40 41 42 0
-43 -44 0
-43 -45 0
-44 -45 0
43 44 45 0
-46 -47 0
-46 -48 0
-47 -48 0
46 47 48 0
-49 -50 0
-49 -51 0
-50 -51 0
49 50 51 0
-52 -53 0
-52 -54 0
-53 -54 0
52 53 54 0
-55 -56 0
-55 -57 0
-56 -57 0
55 56 57 0
-58 -59 0
-58 -60 0
-59 -60 0
58 59 60 0
-61 -62 0
-61 -63 0
-62 -63 0
61 62 63 0
-64 -65 0
-64 -66 0
-65 -66 0
64 65 66 0
-67 -68 0
-67 -69 0
-68 -69 0
67 68 69 0
-70 -71 0
-70 -72 0
-71 -72 0
70 71 72 0
-73 -74 0
-73 -75 0
-74 -75 0
73 74 75 0
-76 -77 0
-76 -78 0
-77 -78 0
76 77 78 0
-79 -80 0
-79 -81 0
-80 -81 0
79 80 81 0
-82 -83 0
-82 -84 0
-83 -84 0
82 83 84 0
-85 -86 0
-85 -87 0
-86 -87 0
85 86 87 0
-88 -89 0
-88 -90 0
-89 -90 0
88 89 90 0
-91 -92 0
-91 -93 0
-92 -93 0
91 92 93 0
-94 -95 0
-94 -96 0
-95 -96 0
94 95 96 0
-97 -98 0
-97 -99 0
-98 -99 0
97 98 99 0
-100 -101 0
-100 -102 0
-101 -102 0
100 101 102 0
-103 -104 0
-103 -105 0
-104 -105 0
103 104 105 0
-106 -107 0
-106 -108 0
-107 -108 0
106 107 108 0
-109 -110 0
-109 -111 0
-110 -111 0
109 110 111 0
-112 -113 0
-112 -114 0
-113 -114 0
112 113 114 0
-115 -116 0
-115 -117 0
-116 -117 0
115 116 117 0
-118 -119 0
-118 -120 0
-119 -120 0
118 119 120 0
-121 -122 0
-121 -123 0
-122 -123 0
121 122 123 0
-124 -125 0
-124 -126 0
-125 -126 0
124 125 126 0
-127 -128 0
-127 -129 0
-128 -129 0
127 128 129 0
-130 -131 0
-130 -132 0
-131 -132 0
130 131 132 0
-133 -134 0
-133 -135 0
-134 -135 0
133 134 135 0
-136 -137 0
-136 -138 0
-137 -138 0
136 137 138 0
-139 -140 0
-139 -141 0
-140 -141 0
139 140 141 0
-142 -143 0
-142 -144 0
-143 -144 0
142 143 144 0
-145 -146 0
-145 -147 0
-146 -147 0
145 146 147 0
-148 -149 0
-148 -150 0
-149 -150 0
148 149 150 0
-55 -1 0
-56 -2 0
-57 -3 0
-88 -1 0
-89 -2 0
-90 -3 0
-91 -1 0
-92 -2 0
-93 -3 0
-142 -1 0
-143 -2 0
-144 -3 0
-145 -1 0
-146 -2 0
-147 -3 0
-79 -4 0
-80 -5 0
-81 -6 0
-94 -4 0
-95 -5 0
-96 -6 0
-118 -4 0
-119 -5 0
-120 -6 0
-124 -7 0
-125 -8 0
-126 -9 0
-64 -10 0
-65 -11 0
-66 -12 0
-70 -10 0
-71 -11 0
-72 -12 0
-130 -10 0
-131 -11 0
-132 -12 0
-136 -10 0
-137 -11 0
-138 -12 0
-148 -10 0
-149 -11 0
-150 -12 0
-61 -13 0
-62 -14 0
-63 -15 0
-85 -13 0
-86 -14 0
-87 -15 0
-94 -13 0
-95 -14 0
-96 -15 0
-103 -13 0
-104 -14 0
-105 -15 0
-118 -13 0
-119 -14 0
-120 -15 0
-124 -13 0
-125 -14 0
-126 -15 0
-142 -13 0
-143 -14 0
-144 -15 0
-52 -16 0
-53 -17 0
-54 -18 0
-82 -16 0
-83 -17 0
-84 -18 0
-85 -16 0
-86 -17 0
-87 -18 0
-127 -16 0
-128 -17 0
-129 -18 0
-145 -16 0
-146 -17 0
-147 -18 0
-55 -19 0
-56 -20 0
-57 -21 0
-79 -19 0
-80 -20 0
-81 -21 0
-85 -19 0
-86 -20 0
-87 -21 0
-88 -19 0
-89 -20 0
-90 -21 0
-109 -19 0
-110 -20 0
-111 -21 0
-112 -19 0
-113 -20 0
-114 -21 0
-130 -19 0
-131 -20 0
-132 -21 0
-55 -22 0
-56 -23 0
-57 -24 0
-79 -22 0
-80 -23 0
-81 -24 0
-97 -22 0
-98 -23 0
-99 -24 0
-100 -22 0
-101 -23 0
-102 -24 0
-130 -22 0
-131 -23 0
-132 -24 0
-136 -22 0
-137 -23 0
-138 -24 0
-145 -22 0
-146 -23 0
-147 -24 0
-64 -25 0
-65 -26 0
-66 -27 0
-70 -25 0
-71 -26 0
-72 -27 0
-76 -25 0
-77 -26 0
-78 -27 0
-79 -25 0
-80 -26 0
-81 -27 0
-133 -25 0
-134 -26 0
-135 -27 0
-61 -28 0
-62 -29 0
-63 -30 0
-97 -28 0
-98 -29 0
-99 -30 0
-109 -28 0
-110 -29 0
-111 -30 0
-94 -31 0
-95 -32 0
-96 -33 0
-112 -31 0
-113 -32 0
-114 -33 0
-124 -31 0
-125 -32 0
-126 -33 0
-142 -31 0
-143 -32 0
-144 -33 0
-100 -34 0
-101 -35 0
-102 -36 0
-103 -34 0
-104 -35 0
-105 -36 0
-130 -34 0
-131 -35 0
-132 -36 0
-136 -34 0
-137 -35 0
-138 -36 0
-148 -34 0
-149 -35 0
-150 -36 0
-58 -37 0
-59 -38 0
-60 -39 0
-88 -37 0
-89 -38 0
-90 -39 0
-118 -37 0
-119 -38 0
-120 -39 0
-121 -37 0
-122 -38 0
-123 -39 0
-58 -40 0
-59 -41 0
-60 -42 0
-88 -40 0
-89 -41 0
-90 -42 0
-106 -40 0
-107 -41 0
-108 -42 0
-82 -43 0
-83 -44 0
-84 -45 0
-97 -43 0
-98 -44 0
-99 -45 0
-115 -43 0
-116 -44 0
-117 -45 0
-118 -43 0
-119 -44 0
-120 -45 0
-61 -46 0
-62 -47 0
-63 -48 0
-97 -46 0
-98 -47 0
-99 -48 0
-106 -46 0
-107 -47 0
-108 -48 0
-121 -46 0
-122 -47 0
-123 -48 0
-67 -49 0
-68 -50 0
-69 -51 0
-85 -49 0
-86 -50 0
-87 -51 0
-94 -49 0
-95 -50 0
-96 -51 0
-133 -49 0
-134 -50 0
-135 -51 0
-142 -49 0
-143 -50 0
-144 -51 0
-145 -49 0
-146 -50 0
-147 -51 0
-112 -52 0
-113 -53 0
-114 -54 0
-148 -55 0
-149 -56 0
-150 -57 0
-115 -58 0
-116 -59 0
-117 -60 0
-130 -58 0
-131 -59 0
-132 -60 0
-133 -58 0
-134 -59 0
-135 -60 0
-145 -58 0
-146 -59 0
-147 -60 0
-127 -61 0
-128 -62 0
-129 -63 0
-139 -64 0
-140 -65 0
-141 -66 0
-121 -67 0
-122 -68 0
-123 -69 0
-103 -70 0
-104 -71 0
-105 -72 0
-133 -70 0
-134 -71 0
-135 -72 0
-142 -70 0
-143 -71 0
-144 -72 0
-145 -70 0
-146 -71 0
-147 -72 0
-112 -73 0
-113 -74 0
-114 -75 0
-130 -73 0
-131 -74 0
-132 -75 0
-130 -76 0
-131 -77 0
-132 -78 0
-109 -79 0
-110 -80 0
-111 -81 0
-124 -79 0
-125 -80 0
-126 -81 0
-136 -79 0
-137 -80 0
-138 -81 0
-121 -82 0
-122 -83 0
-123 -84 0
-121 -85 0
-122 -86 0
-123 -87 0
-139 -85 0
-140 -86 0
-141 -87 0
-148 -85 0
-149 -86 0
-150 -87 0
-115 -88 0
-116 -89 0
-117 -90 0
-139 -88 0
-140 -89 0
-141 -90 0
-148 -88 0
-149 -89 0
-150 -90 0
-118 -91 0
-119 -92 0
-120 -93 0
-133 -91 0
-134 -92 0
-135 -93 0
-142 -91 0
-143 -92 0
-144 -93 0
-148 -91 0
-149 -92 0
-150 -93 0
-115 -94 0
-116 -95 0
-117 -96 0
-127 -94 0
-128 -95 0
-129 -96 0
-136 -94 0
-137 -95 0
-138 -96 0
-127 -97 0
-128 -98 0
-129 -99 0
-136 -97 0
-137 -98 0
-138 -99 0
-127 -100 0
-128 -101 0
-129 -102 0
-133 -100 0
-134 -101 0
-135 -102 0
